NAME: A-n33-f6
COMMENT : -
TYPE : GVRP
DIMENSION : 38
EDGE_WEIGHT_TYPE : EUC_2D
CAPACITY : 100
AUTONOMY : 62
DEPOT_COORD_SECTION
1 73 39
CUSTOMER_COORD_SECTION
2 67 91
3 39 21
4 3 9
5 97 15
6 91 65
7 55 75
8 55 71
9 57 85
10 21 15
11 47 57
12 51 97
13 11 11
14 43 59
15 63 69
16 55 77
17 35 11
18 27 91
19 49 25
20 29 93
21 71 27
22 31 43
23 27 9
24 67 99
25 87 81
26 23 81
27 89 33
28 71 91
29 19 77
30 65 77
31 87 79
32 19 83
33 1 59
34 55 7
AFS_COORD_SECTION
35 30 22
36 75 28
37 65 78
38 38 91
39 7 69
EOF